c Generated map
c Size: 15 * 15, weights in range: 1 to 10, walls: True, with ratio 0.05
c dim 1 of 4
c
p sp 225 378
c graph contains 225 nodes and 378 arcs
c
a 1 16 3
a 16 1 3
a 1 2 2
a 2 1 2
a 2 17 3
a 17 2 3
a 2 3 9
a 3 2 9
a 3 18 1
a 18 3 1
a 3 4 1
a 4 3 1
a 4 19 5
a 19 4 5
a 4 5 2
a 5 4 2
a 5 20 2
a 20 5 2
a 5 6 4
a 6 5 4
a 6 21 6
a 21 6 6
a 6 7 5
a 7 6 5
a 7 22 6
a 22 7 6
a 7 8 1
a 8 7 1
a 8 9 1
a 9 8 1
a 9 24 8
a 24 9 8
a 9 10 5
a 10 9 5
a 10 25 7
a 25 10 7
a 10 11 5
a 11 10 5
a 11 26 9
a 26 11 9
a 11 12 8
a 12 11 8
a 12 27 8
a 27 12 8
a 12 13 6
a 13 12 6
a 13 28 8
a 28 13 8
a 13 14 1
a 14 13 1
a 14 29 5
a 29 14 5
a 14 15 4
a 15 14 4
a 15 30 5
a 30 15 5
a 16 31 8
a 31 16 8
a 16 17 7
a 17 16 7
a 17 32 2
a 32 17 2
a 17 18 6
a 18 17 6
a 18 33 8
a 33 18 8
a 18 19 2
a 19 18 2
a 19 34 4
a 34 19 4
a 19 20 3
a 20 19 3
a 20 35 6
a 35 20 6
a 20 21 9
a 21 20 9
a 21 36 4
a 36 21 4
a 21 22 3
a 22 21 3
a 22 37 3
a 37 22 3
a 24 39 8
a 39 24 8
a 24 25 6
a 25 24 6
a 25 40 9
a 40 25 9
a 25 26 2
a 26 25 2
a 26 41 5
a 41 26 5
a 26 27 7
a 27 26 7
a 27 42 5
a 42 27 5
a 27 28 8
a 28 27 8
a 28 43 7
a 43 28 7
a 28 29 1
a 29 28 1
a 29 44 3
a 44 29 3
a 29 30 8
a 30 29 8
a 30 45 4
a 45 30 4
a 31 46 8
a 46 31 8
a 31 32 2
a 32 31 2
a 32 47 6
a 47 32 6
a 32 33 6
a 33 32 6
a 33 48 5
a 48 33 5
a 33 34 2
a 34 33 2
a 34 49 8
a 49 34 8
a 34 35 9
a 35 34 9
a 35 50 1
a 50 35 1
a 35 36 10
a 36 35 10
a 36 51 7
a 51 36 7
a 36 37 10
a 37 36 10
a 37 52 9
a 52 37 9
a 37 38 2
a 38 37 2
a 38 53 2
a 53 38 2
a 38 39 2
a 39 38 2
a 39 54 3
a 54 39 3
a 39 40 10
a 40 39 10
a 40 55 9
a 55 40 9
a 40 41 6
a 41 40 6
a 41 56 3
a 56 41 3
a 41 42 10
a 42 41 10
a 42 57 4
a 57 42 4
a 42 43 8
a 43 42 8
a 43 58 9
a 58 43 9
a 43 44 8
a 44 43 8
a 44 59 10
a 59 44 10
a 44 45 5
a 45 44 5
a 45 60 9
a 60 45 9
a 46 61 2
a 61 46 2
a 46 47 8
a 47 46 8
a 47 62 7
a 62 47 7
a 47 48 10
a 48 47 10
a 48 63 8
a 63 48 8
a 48 49 6
a 49 48 6
a 49 64 3
a 64 49 3
a 49 50 5
a 50 49 5
a 50 65 2
a 65 50 2
a 50 51 9
a 51 50 9
a 51 66 1
a 66 51 1
a 51 52 6
a 52 51 6
a 52 67 8
a 67 52 8
a 52 53 7
a 53 52 7
a 53 68 6
a 68 53 6
a 53 54 10
a 54 53 10
a 54 69 6
a 69 54 6
a 54 55 1
a 55 54 1
a 55 70 8
a 70 55 8
a 55 56 10
a 56 55 10
a 56 71 1
a 71 56 1
a 56 57 7
a 57 56 7
a 57 72 10
a 72 57 10
a 57 58 1
a 58 57 1
a 58 73 6
a 73 58 6
a 58 59 8
a 59 58 8
a 59 74 9
a 74 59 9
a 59 60 10
a 60 59 10
a 60 75 6
a 75 60 6
a 61 76 2
a 76 61 2
a 61 62 6
a 62 61 6
a 62 77 6
a 77 62 6
a 62 63 9
a 63 62 9
a 63 78 2
a 78 63 2
a 63 64 9
a 64 63 9
a 64 79 5
a 79 64 5
a 64 65 9
a 65 64 9
a 65 80 4
a 80 65 4
a 65 66 5
a 66 65 5
a 66 81 9
a 81 66 9
a 66 67 9
a 67 66 9
a 67 82 5
a 82 67 5
a 67 68 2
a 68 67 2
a 68 83 5
a 83 68 5
a 68 69 7
a 69 68 7
a 69 84 8
a 84 69 8
a 69 70 2
a 70 69 2
a 70 85 5
a 85 70 5
a 70 71 9
a 71 70 9
a 71 86 9
a 86 71 9
a 71 72 8
a 72 71 8
a 72 87 1
a 87 72 1
a 72 73 10
a 73 72 10
a 73 88 9
a 88 73 9
a 73 74 7
a 74 73 7
a 74 89 4
a 89 74 4
a 74 75 3
a 75 74 3
a 75 90 3
a 90 75 3
a 76 91 1
a 91 76 1
a 76 77 6
a 77 76 6
a 77 78 3
a 78 77 3
a 78 93 3
a 93 78 3
a 78 79 7
a 79 78 7
a 79 94 7
a 94 79 7
a 79 80 6
a 80 79 6
a 80 95 7
a 95 80 7
a 80 81 2
a 81 80 2
a 81 96 2
a 96 81 2
a 81 82 7
a 82 81 7
a 82 97 1
a 97 82 1
a 82 83 1
a 83 82 1
a 83 98 3
a 98 83 3
a 83 84 6
a 84 83 6
a 84 85 9
a 85 84 9
a 85 100 3
a 100 85 3
a 85 86 2
a 86 85 2
a 86 101 4
a 101 86 4
a 86 87 6
a 87 86 6
a 87 88 8
a 88 87 8
a 88 103 7
a 103 88 7
a 88 89 7
a 89 88 7
a 89 104 5
a 104 89 5
a 89 90 10
a 90 89 10
a 90 105 3
a 105 90 3
a 91 106 3
a 106 91 3
a 93 108 5
a 108 93 5
a 93 94 9
a 94 93 9
a 94 109 9
a 109 94 9
a 94 95 8
a 95 94 8
a 95 110 1
a 110 95 1
a 95 96 4
a 96 95 4
a 96 111 7
a 111 96 7
a 96 97 7
a 97 96 7
a 97 112 9
a 112 97 9
a 97 98 8
a 98 97 8
a 98 113 5
a 113 98 5
a 100 115 4
a 115 100 4
a 100 101 4
a 101 100 4
a 101 116 2
a 116 101 2
a 103 104 1
a 104 103 1
a 104 119 9
a 119 104 9
a 104 105 7
a 105 104 7
a 105 120 9
a 120 105 9
a 106 121 9
a 121 106 9
a 108 123 10
a 123 108 10
a 108 109 6
a 109 108 6
a 109 124 4
a 124 109 4
a 109 110 9
a 110 109 9
a 110 125 6
a 125 110 6
a 110 111 1
a 111 110 1
a 111 126 8
a 126 111 8
a 111 112 2
a 112 111 2
a 112 127 4
a 127 112 4
a 112 113 9
a 113 112 9
a 113 128 2
a 128 113 2
a 113 114 3
a 114 113 3
a 114 129 9
a 129 114 9
a 114 115 1
a 115 114 1
a 115 130 10
a 130 115 10
a 115 116 1
a 116 115 1
a 116 131 9
a 131 116 9
a 116 117 5
a 117 116 5
a 117 132 4
a 132 117 4
a 119 134 8
a 134 119 8
a 119 120 5
a 120 119 5
a 120 135 1
a 135 120 1
a 121 136 10
a 136 121 10
a 121 122 5
a 122 121 5
a 122 137 7
a 137 122 7
a 122 123 7
a 123 122 7
a 123 138 10
a 138 123 10
a 123 124 6
a 124 123 6
a 124 125 2
a 125 124 2
a 125 140 5
a 140 125 5
a 125 126 4
a 126 125 4
a 126 141 6
a 141 126 6
a 126 127 1
a 127 126 1
a 127 142 2
a 142 127 2
a 127 128 3
a 128 127 3
a 128 143 3
a 143 128 3
a 128 129 7
a 129 128 7
a 129 144 2
a 144 129 2
a 129 130 5
a 130 129 5
a 130 145 5
a 145 130 5
a 130 131 3
a 131 130 3
a 131 146 5
a 146 131 5
a 131 132 10
a 132 131 10
a 132 147 5
a 147 132 5
a 132 133 1
a 133 132 1
a 133 148 4
a 148 133 4
a 133 134 10
a 134 133 10
a 134 149 3
a 149 134 3
a 134 135 6
a 135 134 6
a 135 150 8
a 150 135 8
a 136 151 1
a 151 136 1
a 136 137 6
a 137 136 6
a 137 152 2
a 152 137 2
a 137 138 1
a 138 137 1
a 138 153 4
a 153 138 4
a 140 155 7
a 155 140 7
a 140 141 6
a 141 140 6
a 141 156 4
a 156 141 4
a 141 142 5
a 142 141 5
a 142 157 3
a 157 142 3
a 142 143 2
a 143 142 2
a 143 158 5
a 158 143 5
a 143 144 8
a 144 143 8
a 144 159 3
a 159 144 3
a 144 145 7
a 145 144 7
a 145 160 8
a 160 145 8
a 145 146 9
a 146 145 9
a 146 161 8
a 161 146 8
a 146 147 3
a 147 146 3
a 147 162 7
a 162 147 7
a 147 148 6
a 148 147 6
a 148 163 4
a 163 148 4
a 148 149 1
a 149 148 1
a 149 164 4
a 164 149 4
a 149 150 6
a 150 149 6
a 150 165 3
a 165 150 3
a 151 166 3
a 166 151 3
a 151 152 10
a 152 151 10
a 152 167 2
a 167 152 2
a 152 153 9
a 153 152 9
a 153 168 5
a 168 153 5
a 153 154 6
a 154 153 6
a 154 169 9
a 169 154 9
a 154 155 9
a 155 154 9
a 155 170 4
a 170 155 4
a 155 156 5
a 156 155 5
a 156 171 3
a 171 156 3
a 156 157 9
a 157 156 9
a 157 172 1
a 172 157 1
a 157 158 8
a 158 157 8
a 158 159 2
a 159 158 2
a 159 174 2
a 174 159 2
a 159 160 6
a 160 159 6
a 160 161 5
a 161 160 5
a 161 176 6
a 176 161 6
a 161 162 4
a 162 161 4
a 162 177 9
a 177 162 9
a 162 163 9
a 163 162 9
a 163 178 9
a 178 163 9
a 163 164 8
a 164 163 8
a 164 179 1
a 179 164 1
a 164 165 7
a 165 164 7
a 165 180 3
a 180 165 3
a 166 181 8
a 181 166 8
a 166 167 3
a 167 166 3
a 167 182 8
a 182 167 8
a 167 168 2
a 168 167 2
a 168 183 5
a 183 168 5
a 168 169 6
a 169 168 6
a 169 184 9
a 184 169 9
a 169 170 9
a 170 169 9
a 170 185 5
a 185 170 5
a 170 171 10
a 171 170 10
a 171 186 6
a 186 171 6
a 171 172 1
a 172 171 1
a 172 187 9
a 187 172 9
a 174 189 10
a 189 174 10
a 176 191 3
a 191 176 3
a 176 177 9
a 177 176 9
a 177 192 8
a 192 177 8
a 177 178 10
a 178 177 10
a 178 193 8
a 193 178 8
a 178 179 5
a 179 178 5
a 179 194 6
a 194 179 6
a 179 180 4
a 180 179 4
a 180 195 5
a 195 180 5
a 181 196 8
a 196 181 8
a 181 182 9
a 182 181 9
a 182 197 2
a 197 182 2
a 182 183 6
a 183 182 6
a 183 198 1
a 198 183 1
a 183 184 7
a 184 183 7
a 184 199 8
a 199 184 8
a 184 185 8
a 185 184 8
a 185 200 8
a 200 185 8
a 185 186 3
a 186 185 3
a 186 201 5
a 201 186 5
a 186 187 1
a 187 186 1
a 187 202 9
a 202 187 9
a 187 188 3
a 188 187 3
a 188 203 4
a 203 188 4
a 188 189 5
a 189 188 5
a 189 204 6
a 204 189 6
a 189 190 7
a 190 189 7
a 190 205 3
a 205 190 3
a 190 191 2
a 191 190 2
a 191 206 9
a 206 191 9
a 191 192 1
a 192 191 1
a 192 207 7
a 207 192 7
a 192 193 8
a 193 192 8
a 193 194 4
a 194 193 4
a 194 209 9
a 209 194 9
a 194 195 7
a 195 194 7
a 195 210 5
a 210 195 5
a 196 211 2
a 211 196 2
a 196 197 1
a 197 196 1
a 197 212 8
a 212 197 8
a 197 198 3
a 198 197 3
a 198 213 8
a 213 198 8
a 198 199 4
a 199 198 4
a 199 214 4
a 214 199 4
a 199 200 7
a 200 199 7
a 200 215 4
a 215 200 4
a 200 201 9
a 201 200 9
a 201 202 7
a 202 201 7
a 202 217 7
a 217 202 7
a 202 203 9
a 203 202 9
a 203 218 4
a 218 203 4
a 203 204 3
a 204 203 3
a 204 219 6
a 219 204 6
a 204 205 6
a 205 204 6
a 205 220 7
a 220 205 7
a 205 206 9
a 206 205 9
a 206 221 3
a 221 206 3
a 206 207 5
a 207 206 5
a 207 222 3
a 222 207 3
a 209 224 2
a 224 209 2
a 209 210 8
a 210 209 8
a 210 225 3
a 225 210 3
a 211 212 3
a 212 211 3
a 212 213 8
a 213 212 8
a 213 214 6
a 214 213 6
a 214 215 6
a 215 214 6
a 217 218 1
a 218 217 1
a 218 219 9
a 219 218 9
a 219 220 6
a 220 219 6
a 220 221 4
a 221 220 4
a 221 222 6
a 222 221 6
a 222 223 9
a 223 222 9
a 223 224 8
a 224 223 8
a 224 225 7
a 225 224 7
